
  32    1
  10

   0   0   9 2 3 4 5 6 7 8 14 16 
   4   1   5 18 17 12 10 9 
   2   2   6 23 17 13 12 11 10 
   1   1   3 17 11 9 
   5   4   8 31 23 20 18 17 15 13 12 
   2   3   4 23 17 15 11 
   9   3   5 31 23 18 17 15 
   4   2   6 31 30 22 20 18 17 
   8   1   4 23 20 15 13 
   9   2   7 31 30 29 28 27 25 21 
   4   1   3 31 20 18 
   2   2   5 29 28 27 22 21 
   1   1   4 29 28 27 19 
   2   4   4 31 25 23 21 
   4   1   3 29 22 19 
   7   3   3 28 27 19 
   2   2   2 27 19 
  10   2   5 29 28 26 25 24 
  10   2   2 25 21 
   1   1   2 25 21 
   6   3   2 26 24 
   8   2   2 25 24 
  10   1   2 30 27 
   6   2   1 32
   7   2   1 32
   6   1   1 32
  10   2   1 32
   3   1   1 32
  10   4   1 32
   4   1   1 32
   5   3   1 32
   0   0   0 
